#######################
Slurm job id: 17497813_354
Running on machine: p16
Running cmd: /nfs/shared/static-builds/gurobi1202 SOFTMEMLIMIT=125 TimeLimit=300 seed=3 /nfs/models/miplib2010/k16x240.mps.bz2
#######################
Set parameter TimeLimit to value 300
Set parameter SoftMemLimit to value 125
Set parameter LogFile to value 1202-TimeLimit300-k16x240-3.log
Set parameter Seed to value 3
Using license file /opt/gurobi/gurobi.lic

Gurobi Optimizer version 12.0.2 build v12.0.2rc0 (linux64 - "Ubuntu 22.04.4 LTS")
Copyright (c) 2025, Gurobi Optimization, LLC

Read MPS format model from file /nfs/models/miplib2010/k16x240.mps.bz2
Reading time = 0.00 seconds
k16x240: 256 rows, 480 columns, 960 nonzeros

Using Gurobi shared library /nfs/shared/static-builds/gurobi1202

CPU model: Intel(R) Xeon(R) E-2388G CPU @ 3.20GHz, instruction set [SSE2|AVX|AVX2|AVX512]
Thread count: 8 physical cores, 16 logical processors, using up to 16 threads

Non-default parameters:
TimeLimit  300
SoftMemLimit  125
Seed  3

Optimize a model with 256 rows, 480 columns and 960 nonzeros
Model fingerprint: 0x4e80885f
Variable types: 240 continuous, 240 integer (240 binary)
Coefficient statistics:
  Matrix range     [1e+00, 1e+03]
  Objective range  [1e+00, 1e+03]
  Bounds range     [1e+00, 1e+03]
  RHS range        [4e+00, 4e+02]
Found heuristic solution: objective 20220.000000
Presolve time: 0.00s
Presolved: 256 rows, 480 columns, 960 nonzeros
Variable types: 240 continuous, 240 integer (240 binary)

Root relaxation: objective 2.769838e+03, 51 iterations, 0.00 seconds (0.00 work units)

    Nodes    |    Current Node    |     Objective Bounds      |     Work
 Expl Unexpl |  Obj  Depth IntInf | Incumbent    BestBd   Gap | It/Node Time

     0     0 2769.83800    0   14 20220.0000 2769.83800  86.3%     -    0s
H    0     0                    11359.000000 2769.83800  75.6%     -    0s
H    0     0                    11195.000000 2769.83800  75.3%     -    0s
H    0     0                    11088.000000 2769.83800  75.0%     -    0s
H    0     0                    11074.000000 8084.69631  27.0%     -    0s
     0     0 8084.69631    0   26 11074.0000 8084.69631  27.0%     -    0s
H    0     0                    10916.000000 8126.71248  25.6%     -    0s
     0     0 8528.16906    0   24 10916.0000 8528.16906  21.9%     -    0s
     0     0 8539.49533    0   34 10916.0000 8539.49533  21.8%     -    0s
H    0     0                    10913.000000 8548.03675  21.7%     -    0s
     0     0 8548.03675    0   29 10913.0000 8548.03675  21.7%     -    0s
H    0     0                    10806.000000 8548.03675  20.9%     -    0s
     0     0 8739.20556    0   38 10806.0000 8739.20556  19.1%     -    0s
H    0     0                    10801.000000 8745.55182  19.0%     -    0s
H    0     0                    10784.000000 8745.55182  18.9%     -    0s
H    0     0                    10717.000000 8745.55182  18.4%     -    0s
     0     0 8805.66840    0   29 10717.0000 8805.66840  17.8%     -    0s
     0     0 8815.00598    0   31 10717.0000 8815.00598  17.7%     -    0s
     0     0 8817.96662    0   29 10717.0000 8817.96662  17.7%     -    0s
     0     0 9006.87536    0   28 10717.0000 9006.87536  16.0%     -    0s
     0     0 9024.91746    0   37 10717.0000 9024.91746  15.8%     -    0s
     0     0 9027.18594    0   38 10717.0000 9027.18594  15.8%     -    0s
     0     0 9059.40211    0   25 10717.0000 9059.40211  15.5%     -    0s
     0     0 9075.95994    0   33 10717.0000 9075.95994  15.3%     -    0s
     0     0 9082.66128    0   29 10717.0000 9082.66128  15.2%     -    0s
     0     0 9110.26995    0   40 10717.0000 9110.26995  15.0%     -    0s
     0     0 9111.04764    0   40 10717.0000 9111.04764  15.0%     -    0s
     0     2 9113.10969    0   40 10717.0000 9113.10969  15.0%     -    0s
H  196   208                    10683.000000 9227.28794  13.6%  23.0    0s
H  297   298                    10681.000000 9236.11738  13.5%  18.5    0s
H  974   841                    10678.000000 9343.24178  12.5%  16.9    0s
H 1036   841                    10674.000000 9343.24178  12.5%  16.7    0s
 33506 11567     cutoff   37      10674.0000 10055.2389  5.80%  26.8    5s
 69625 15601 10310.3302   27   11 10674.0000 10237.8080  4.09%  27.4   10s
 107084  8702     cutoff   24      10674.0000 10426.7083  2.32%  27.7   15s

Cutting planes:
  Gomory: 1
  Lift-and-project: 15
  Cover: 69
  Implied bound: 35
  Dual implied bound: 25
  MIR: 172
  Flow cover: 295
  Flow path: 57
  Inf proof: 1
  Zero half: 8
  Network: 53
  Relax-and-lift: 2

Explored 123155 nodes (3307974 simplex iterations) in 16.71 seconds (22.28 work units)
Thread count was 16 (of 16 available processors)

Solution count 10: 10674 10678 10681 ... 10916

Optimal solution found (tolerance 1.00e-04)
Best objective 1.067400000000e+04, best bound 1.067400000000e+04, gap 0.0000%
